p cnf 15 27
8 0
1 -5 4 0
3 -13 -12 5 0
12 5 0
2 7 0
14 5 -2 7 0
-14 -13 -1 -9 0
10 -14 -5 0
-12 -10 0
10 0
-12 0
10 0
-7 0
-14 -12 5 0
2 -3 -10 14 0
-4 4 7 0
8 -4 -3 -10 0
-12 0
11 2 3 -2 0
-9 0
-8 -11 6 7 0
15 0
11 5 0
-9 0
-7 3 0
5 -5 -11 15 0
-6 -14 6 -13 0
